9
0 67 69 63 89 28 62 47 81
67 0 91 79 63 100 50 53 83
69 91 0 52 73 45 59 49 67
63 79 52 0 86 45 22 81 34
89 63 73 86 0 15 42 62 73
28 100 45 45 15 0 40 49 99
62 50 59 22 42 40 0 25 34
47 53 49 81 62 49 25 0 91
81 83 67 34 73 99 34 91 0
